p cnf 51 39
c p distribution  0.3 0.5 0.2
c p distribution  0.75 0.25
c p distribution  0.64 0.36
c p distribution  0.72 0.28
c p distribution  0.7 0.3
c p distribution  0.88 0.12
c p distribution  0.9 0.1
c p distribution  0.96 0.04
c p distribution  0.92 0.08
c p distribution  0.25 0.75
c p distribution  0.2 0.8
c p distribution  0.6 0.4
c p distribution  0.48 0.42 0.1
c p distribution  0.58 0.24 0.18
c p distribution  0.56 0.36 0.08
c p distribution  0.7 0.21 0.09
38 -1 0
39 -2 0
40 -3 0
41 -38 -47 -4 0
42 -38 -47 -5 0
41 -38 -48 -6 0
42 -38 -48 -7 0
41 -39 -47 -8 0
42 -39 -47 -9 0
41 -39 -48 -10 0
42 -39 -48 -11 0
41 -40 -47 -12 0
42 -40 -47 -13 0
41 -40 -48 -14 0
42 -40 -48 -15 0
43 -41 -16 0
44 -41 -17 0
43 -42 -18 0
44 -42 -19 0
45 -41 -20 0
46 -41 -21 0
45 -42 -22 0
46 -42 -23 0
47 -24 0
48 -25 0
49 -43 -45 -26 0
50 -43 -45 -27 0
51 -43 -45 -28 0
49 -43 -46 -29 0
50 -43 -46 -30 0
51 -43 -46 -31 0
49 -44 -45 -32 0
50 -44 -45 -33 0
51 -44 -45 -34 0
49 -44 -46 -35 0
50 -44 -46 -36 0
51 -44 -46 -37 0
-50 0
-51 0

